SPARKNaCl/why3-z3/sparknacl-utils.adb_15_32_range_check2_1.smt2
;; produced by z3_gnatprove.drv ;;
(set-info :smt-lib-version 2.5)
(set-info :source |VC generated by SPARK 2014|)
(set-info :category industrial)
(set-info :status unknown)
;;; generated by SMT-LIB2 driver
;;; SMT-LIB2 driver: bit-vectors, common part
;;; SMT-LIB2: integer arithmetic
(declare-datatypes ()
  ((int__ref (int__refqtmk (int__content Int)))))

(declare-datatypes ()
  ((t__ref (t__refqtmk (t__content (_ BitVec 64))))))

(declare-sort byte 0)

;; "to_rep"
(declare-fun to_rep (byte) (_ BitVec 8))

;; "of_rep"
(declare-fun of_rep ((_ BitVec 8)) byte)

;; "inversion_axiom"
(assert
  (forall ((x byte)) (! (= (of_rep (to_rep x)) x) :pattern ((to_rep x)) )))

;; "range_axiom"
(assert true)

;; "coerce_axiom"
(assert
  (forall ((x (_ BitVec 8)))
    (! (= (to_rep (of_rep x)) x) :pattern ((to_rep (of_rep x))) )))

(declare-sort map1 0)

(declare-datatypes ()
  ((map__ref (map__refqtmk (map__content map1)))))

;; "has_bounds"
(declare-fun has_bounds (map1
  Int
  Int) Bool)

;; "get"
(declare-fun get (map1
  Int) byte)

(declare-const input (_ BitVec 64))

(declare-const output map1)

;; "output'unused"
(define-fun outputqtunused () map__ref
  (map__refqtmk output))

;; "Assume"
(assert (has_bounds output 0 7))

;; "Assume"
(assert true)

(declare-const x (_ BitVec 64))

;; "x'unused"
(define-fun xqtunused () t__ref
  (t__refqtmk x))

;; "H"
(assert (= x input))

;; "Assume"
(assert true)

(declare-const i Int)

;; "i'unused"
(define-fun iqtunused () int__ref
  (int__refqtmk i))

;; "H"
(assert (= i 0))

;; "int__content'result'unused"
(define-fun int__contentqtresultqtunused () Int
  i)

;; "o"
(define-fun o () Bool
  (ite (<= i 7) true false))

;; "infix <='result'unused"
(define-fun infix_lseqqtresultqtunused () Bool
  o)

;; "int__content'result'unused"
(define-fun int__contentqtresultqtunused1 () Int
  i)

;; "o"
(define-fun o1 () Bool
  (ite (<= 0 i) true false))

;; "infix <='result'unused"
(define-fun infix_lseqqtresultqtunused1 () Bool
  o1)

;; "o"
(define-fun o2 () Bool
  (and o1 o))

;; "andb'result'unused"
(define-fun andbqtresultqtunused () Bool
  o2)

;; "H"
(assert (= o2 true))

;; "temp___loop_entry_683'unused"
(define-fun temp___loop_entry_683qtunused () map1
  output)

;; "map__content'result'unused"
(define-fun map__contentqtresultqtunused () map1
  output)

;; "temp___loop_entry_681'unused"
(define-fun temp___loop_entry_681qtunused () (_ BitVec 64)
  x)

;; "t__content'result'unused"
(define-fun t__contentqtresultqtunused () (_ BitVec 64)
  x)

(declare-const output1 map1)

(declare-const x1 (_ BitVec 64))

(declare-const i1 Int)

;; "i'unused"
(define-fun iqtunused1 () int__ref
  (int__refqtmk i1))

;; "x'unused"
(define-fun xqtunused1 () t__ref
  (t__refqtmk x1))

;; "output'unused"
(define-fun outputqtunused1 () map__ref
  (map__refqtmk output1))

;; "Assume"
(assert
  (= (and (ite (and
                 (has_bounds output1 0 7)
                 (forall ((temp___684 Int))
                   (=>
                     (and (<= 0 temp___684) (<= temp___684 7))
                     (=>
                       (or
                         (< 7 temp___684)
                         (or (< temp___684 0) (<= i1 temp___684)))
                       (= (get output1 temp___684) (get output temp___684))))))
            true
            false) (ite (and (<= 0 i1) (<= i1 7)) true false)) true))

;; "t__content'result'unused"
(define-fun t__contentqtresultqtunused1 () (_ BitVec 64)
  x1)

;; "o"
(define-fun o3 () (_ BitVec 64)
  (bvand x1 #x00000000000000FF))

;; "bw_and'result'unused"
(define-fun bw_andqtresultqtunused () (_ BitVec 64)
  o3)

;; "o"
(define-fun o4 () (_ BitVec 64)
  ((_ zero_extend 56) #xFF))

;; "toBig'result'unused"
(define-fun toBigqtresultqtunused () (_ BitVec 64)
  o4)

;; "o"
(define-fun o5 () (_ BitVec 64)
  ((_ zero_extend 56) #x00))

;; "toBig'result'unused"
(define-fun toBigqtresultqtunused1 () (_ BitVec 64)
  o5)

;; Goal "def'vc"
;; File "sparknacl-utils.ads", line 15, characters 0-0
(assert
  (not (bvule o3 o4)))

(check-sat)
